unsat
(define-fun SC ((s (_ BitVec 4)) (t (_ BitVec 4))) Bool (bvuge (bvlshr #b1111 s) t))
30.14user 0.03system 0:30.17elapsed 99%CPU (0avgtext+0avgdata 51896maxresident)k
8inputs+8outputs (0major+9150minor)pagefaults 0swaps
